p cnf 386 460
-3 -18 12 21 22 0
-3 -18 12 21 -22 0
-3 -18 12 -21 23 0
-3 -18 12 -21 -23 0
19 7 13 24 25 0
19 7 13 24 -25 0
19 7 13 -24 26 0
19 7 13 -24 -26 0
-4 -14 -5 27 28 0
-4 -14 -5 27 -28 0
-4 -14 -5 -27 29 0
-4 -14 -5 -27 -29 0
-6 15 1 30 31 0
-6 15 1 30 -31 0
-6 15 1 -30 32 0
-6 15 1 -30 -32 0
-1 10 -20 33 34 0
-1 10 -20 33 -34 0
-1 10 -20 -33 35 0
-1 10 -20 -33 -35 0
18 -6 8 36 37 0
18 -6 8 36 -37 0
18 -6 8 -36 38 0
18 -6 8 -36 -38 0
-10 -18 3 39 40 0
-10 -18 3 39 -40 0
-10 -18 3 -39 41 0
-10 -18 3 -39 -41 0
-4 -6 -15 42 43 0
-4 -6 -15 42 -43 0
-4 -6 -15 -42 44 0
-4 -6 -15 -42 -44 0
-2 -12 -15 45 46 0
-2 -12 -15 45 -46 0
-2 -12 -15 -45 47 0
-2 -12 -15 -45 -47 0
14 6 19 48 49 0
14 6 19 48 -49 0
14 6 19 -48 50 0
14 6 19 -48 -50 0
-2 -15 -17 51 52 0
-2 -15 -17 51 -52 0
-2 -15 -17 -51 53 0
-2 -15 -17 -51 -53 0
20 -11 -9 54 55 0
20 -11 -9 54 -55 0
20 -11 -9 -54 56 0
20 -11 -9 -54 -56 0
12 -15 5 57 58 0
12 -15 5 57 -58 0
12 -15 5 -57 59 0
12 -15 5 -57 -59 0
-20 12 13 60 61 0
-20 12 13 60 -61 0
-20 12 13 -60 62 0
-20 12 13 -60 -62 0
-14 18 15 63 64 0
-14 18 15 63 -64 0
-14 18 15 -63 65 0
-14 18 15 -63 -65 0
-2 -4 -18 66 67 0
-2 -4 -18 66 -67 0
-2 -4 -18 -66 68 0
-2 -4 -18 -66 -68 0
18 -13 -1 69 70 0
18 -13 -1 69 -70 0
18 -13 -1 -69 71 0
18 -13 -1 -69 -71 0
-6 -7 -11 72 73 0
-6 -7 -11 72 -73 0
-6 -7 -11 -72 74 0
-6 -7 -11 -72 -74 0
12 -8 -5 75 76 0
12 -8 -5 75 -76 0
12 -8 -5 -75 77 0
12 -8 -5 -75 -77 0
-18 -9 -8 78 79 0
-18 -9 -8 78 -79 0
-18 -9 -8 -78 80 0
-18 -9 -8 -78 -80 0
12 14 -9 81 82 0
12 14 -9 81 -82 0
12 14 -9 -81 83 0
12 14 -9 -81 -83 0
-8 -20 -14 84 85 0
-8 -20 -14 84 -85 0
-8 -20 -14 -84 86 0
-8 -20 -14 -84 -86 0
-1 -16 10 87 88 0
-1 -16 10 87 -88 0
-1 -16 10 -87 89 0
-1 -16 10 -87 -89 0
4 19 -6 90 91 0
4 19 -6 90 -91 0
4 19 -6 -90 92 0
4 19 -6 -90 -92 0
7 -18 17 93 94 0
7 -18 17 93 -94 0
7 -18 17 -93 95 0
7 -18 17 -93 -95 0
2 6 19 96 97 0
2 6 19 96 -97 0
2 6 19 -96 98 0
2 6 19 -96 -98 0
8 -4 -20 99 100 0
8 -4 -20 99 -100 0
8 -4 -20 -99 101 0
8 -4 -20 -99 -101 0
-4 10 9 102 103 0
-4 10 9 102 -103 0
-4 10 9 -102 104 0
-4 10 9 -102 -104 0
20 19 -16 105 106 0
20 19 -16 105 -106 0
20 19 -16 -105 107 0
20 19 -16 -105 -107 0
-16 -5 -1 108 109 0
-16 -5 -1 108 -109 0
-16 -5 -1 -108 110 0
-16 -5 -1 -108 -110 0
-1 14 5 111 112 0
-1 14 5 111 -112 0
-1 14 5 -111 113 0
-1 14 5 -111 -113 0
6 -10 12 114 115 0
6 -10 12 114 -115 0
6 -10 12 -114 116 0
6 -10 12 -114 -116 0
-4 -15 12 117 118 0
-4 -15 12 117 -118 0
-4 -15 12 -117 119 0
-4 -15 12 -117 -119 0
-11 14 -17 120 121 0
-11 14 -17 120 -121 0
-11 14 -17 -120 122 0
-11 14 -17 -120 -122 0
15 -6 12 123 124 0
15 -6 12 123 -124 0
15 -6 12 -123 125 0
15 -6 12 -123 -125 0
7 -12 15 126 127 0
7 -12 15 126 -127 0
7 -12 15 -126 128 0
7 -12 15 -126 -128 0
-12 -3 -15 129 130 0
-12 -3 -15 129 -130 0
-12 -3 -15 -129 131 0
-12 -3 -15 -129 -131 0
-20 -9 15 132 133 0
-20 -9 15 132 -133 0
-20 -9 15 -132 134 0
-20 -9 15 -132 -134 0
13 11 3 135 136 0
13 11 3 135 -136 0
13 11 3 -135 137 0
13 11 3 -135 -137 0
19 -5 9 138 139 0
19 -5 9 138 -139 0
19 -5 9 -138 140 0
19 -5 9 -138 -140 0
20 -18 -14 141 142 0
20 -18 -14 141 -142 0
20 -18 -14 -141 143 0
20 -18 -14 -141 -143 0
-15 13 -11 144 145 0
-15 13 -11 144 -145 0
-15 13 -11 -144 146 0
-15 13 -11 -144 -146 0
11 -16 -6 147 148 0
11 -16 -6 147 -148 0
11 -16 -6 -147 149 0
11 -16 -6 -147 -149 0
14 -7 18 150 151 0
14 -7 18 150 -151 0
14 -7 18 -150 152 0
14 -7 18 -150 -152 0
1 -20 -9 153 154 0
1 -20 -9 153 -154 0
1 -20 -9 -153 155 0
1 -20 -9 -153 -155 0
10 -8 12 156 157 0
10 -8 12 156 -157 0
10 -8 12 -156 158 0
10 -8 12 -156 -158 0
19 -6 16 159 160 0
19 -6 16 159 -160 0
19 -6 16 -159 161 0
19 -6 16 -159 -161 0
20 7 -18 162 163 0
20 7 -18 162 -163 0
20 7 -18 -162 164 0
20 7 -18 -162 -164 0
20 -2 -17 165 166 0
20 -2 -17 165 -166 0
20 -2 -17 -165 167 0
20 -2 -17 -165 -167 0
-4 15 -6 168 169 0
-4 15 -6 168 -169 0
-4 15 -6 -168 170 0
-4 15 -6 -168 -170 0
3 13 -12 171 172 0
3 13 -12 171 -172 0
3 13 -12 -171 173 0
3 13 -12 -171 -173 0
4 -9 -13 174 175 0
4 -9 -13 174 -175 0
4 -9 -13 -174 176 0
4 -9 -13 -174 -176 0
-12 9 -17 177 178 0
-12 9 -17 177 -178 0
-12 9 -17 -177 179 0
-12 9 -17 -177 -179 0
-2 12 6 180 181 0
-2 12 6 180 -181 0
-2 12 6 -180 182 0
-2 12 6 -180 -182 0
-12 -14 3 183 184 0
-12 -14 3 183 -184 0
-12 -14 3 -183 185 0
-12 -14 3 -183 -185 0
-10 -4 -11 186 187 0
-10 -4 -11 186 -187 0
-10 -4 -11 -186 188 0
-10 -4 -11 -186 -188 0
2 -6 -7 189 190 0
2 -6 -7 189 -190 0
2 -6 -7 -189 191 0
2 -6 -7 -189 -191 0
-18 4 14 192 193 0
-18 4 14 192 -193 0
-18 4 14 -192 194 0
-18 4 14 -192 -194 0
20 8 1 195 196 0
20 8 1 195 -196 0
20 8 1 -195 197 0
20 8 1 -195 -197 0
-15 -16 -2 198 199 0
-15 -16 -2 198 -199 0
-15 -16 -2 -198 200 0
-15 -16 -2 -198 -200 0
-3 -2 -19 201 202 0
-3 -2 -19 201 -202 0
-3 -2 -19 -201 203 0
-3 -2 -19 -201 -203 0
-7 16 -1 204 205 0
-7 16 -1 204 -205 0
-7 16 -1 -204 206 0
-7 16 -1 -204 -206 0
-11 20 -5 207 208 0
-11 20 -5 207 -208 0
-11 20 -5 -207 209 0
-11 20 -5 -207 -209 0
18 -13 15 210 211 0
18 -13 15 210 -211 0
18 -13 15 -210 212 0
18 -13 15 -210 -212 0
-18 13 -5 213 214 0
-18 13 -5 213 -214 0
-18 13 -5 -213 215 0
-18 13 -5 -213 -215 0
18 -7 -11 216 217 0
18 -7 -11 216 -217 0
18 -7 -11 -216 218 0
18 -7 -11 -216 -218 0
-17 13 11 219 220 0
-17 13 11 219 -220 0
-17 13 11 -219 221 0
-17 13 11 -219 -221 0
-19 -7 -6 222 223 0
-19 -7 -6 222 -223 0
-19 -7 -6 -222 224 0
-19 -7 -6 -222 -224 0
-15 5 -14 225 226 0
-15 5 -14 225 -226 0
-15 5 -14 -225 227 0
-15 5 -14 -225 -227 0
15 -13 2 228 229 0
15 -13 2 228 -229 0
15 -13 2 -228 230 0
15 -13 2 -228 -230 0
-7 4 18 231 232 0
-7 4 18 231 -232 0
-7 4 18 -231 233 0
-7 4 18 -231 -233 0
15 2 6 234 235 0
15 2 6 234 -235 0
15 2 6 -234 236 0
15 2 6 -234 -236 0
-20 17 -14 237 238 0
-20 17 -14 237 -238 0
-20 17 -14 -237 239 0
-20 17 -14 -237 -239 0
11 -13 7 240 241 0
11 -13 7 240 -241 0
11 -13 7 -240 242 0
11 -13 7 -240 -242 0
-2 6 4 243 244 0
-2 6 4 243 -244 0
-2 6 4 -243 245 0
-2 6 4 -243 -245 0
-17 -7 -2 246 247 0
-17 -7 -2 246 -247 0
-17 -7 -2 -246 248 0
-17 -7 -2 -246 -248 0
-9 -13 14 249 250 0
-9 -13 14 249 -250 0
-9 -13 14 -249 251 0
-9 -13 14 -249 -251 0
-2 13 20 252 253 0
-2 13 20 252 -253 0
-2 13 20 -252 254 0
-2 13 20 -252 -254 0
-7 18 -2 255 256 0
-7 18 -2 255 -256 0
-7 18 -2 -255 257 0
-7 18 -2 -255 -257 0
-16 -7 20 258 259 0
-16 -7 20 258 -259 0
-16 -7 20 -258 260 0
-16 -7 20 -258 -260 0
4 14 -9 261 262 0
4 14 -9 261 -262 0
4 14 -9 -261 263 0
4 14 -9 -261 -263 0
-18 16 12 264 265 0
-18 16 12 264 -265 0
-18 16 12 -264 266 0
-18 16 12 -264 -266 0
-15 11 17 267 268 0
-15 11 17 267 -268 0
-15 11 17 -267 269 0
-15 11 17 -267 -269 0
3 12 -4 270 271 0
3 12 -4 270 -271 0
3 12 -4 -270 272 0
3 12 -4 -270 -272 0
-1 -15 -18 273 274 0
-1 -15 -18 273 -274 0
-1 -15 -18 -273 275 0
-1 -15 -18 -273 -275 0
4 -5 8 276 277 0
4 -5 8 276 -277 0
4 -5 8 -276 278 0
4 -5 8 -276 -278 0
-7 -8 19 279 280 0
-7 -8 19 279 -280 0
-7 -8 19 -279 281 0
-7 -8 19 -279 -281 0
13 -8 1 282 283 0
13 -8 1 282 -283 0
13 -8 1 -282 284 0
13 -8 1 -282 -284 0
-9 5 -8 285 286 0
-9 5 -8 285 -286 0
-9 5 -8 -285 287 0
-9 5 -8 -285 -287 0
10 -9 7 288 289 0
10 -9 7 288 -289 0
10 -9 7 -288 290 0
10 -9 7 -288 -290 0
13 -4 14 291 292 0
13 -4 14 291 -292 0
13 -4 14 -291 293 0
13 -4 14 -291 -293 0
294 295 297 301 309 0
294 295 297 301 -309 0
294 295 297 -301 310 0
294 295 297 -301 -310 0
294 295 -297 302 311 0
294 295 -297 302 -311 0
294 295 -297 -302 312 0
294 295 -297 -302 -312 0
294 -295 298 303 313 0
294 -295 298 303 -313 0
294 -295 298 -303 314 0
294 -295 298 -303 -314 0
294 -295 -298 304 315 0
294 -295 -298 304 -315 0
294 -295 -298 -304 316 0
294 -295 -298 -304 -316 0
-294 296 299 305 317 0
-294 296 299 305 -317 0
-294 296 299 -305 318 0
-294 296 299 -305 -318 0
-294 296 -299 306 319 0
-294 296 -299 306 -319 0
-294 296 -299 -306 320 0
-294 296 -299 -306 -320 0
-294 -296 300 307 321 0
-294 -296 300 307 -321 0
-294 -296 300 -307 322 0
-294 -296 300 -307 -322 0
-294 -296 -300 308 323 0
-294 -296 -300 308 -323 0
-294 -296 -300 -308 324 0
-294 -296 -300 -308 -324 0
325 326 328 332 340 0
325 326 328 332 -340 0
325 326 328 -332 341 0
325 326 328 -332 -341 0
325 326 -328 333 342 0
325 326 -328 333 -342 0
325 326 -328 -333 343 0
325 326 -328 -333 -343 0
325 -326 329 334 344 0
325 -326 329 334 -344 0
325 -326 329 -334 345 0
325 -326 329 -334 -345 0
325 -326 -329 335 346 0
325 -326 -329 335 -346 0
325 -326 -329 -335 347 0
325 -326 -329 -335 -347 0
-325 327 330 336 348 0
-325 327 330 336 -348 0
-325 327 330 -336 349 0
-325 327 330 -336 -349 0
-325 327 -330 337 350 0
-325 327 -330 337 -350 0
-325 327 -330 -337 351 0
-325 327 -330 -337 -351 0
-325 -327 331 338 352 0
-325 -327 331 338 -352 0
-325 -327 331 -338 353 0
-325 -327 331 -338 -353 0
-325 -327 -331 339 354 0
-325 -327 -331 339 -354 0
-325 -327 -331 -339 355 0
-325 -327 -331 -339 -355 0
356 357 359 363 371 0
356 357 359 363 -371 0
356 357 359 -363 372 0
356 357 359 -363 -372 0
356 357 -359 364 373 0
356 357 -359 364 -373 0
356 357 -359 -364 374 0
356 357 -359 -364 -374 0
356 -357 360 365 375 0
356 -357 360 365 -375 0
356 -357 360 -365 376 0
356 -357 360 -365 -376 0
356 -357 -360 366 377 0
356 -357 -360 366 -377 0
356 -357 -360 -366 378 0
356 -357 -360 -366 -378 0
-356 358 361 367 379 0
-356 358 361 367 -379 0
-356 358 361 -367 380 0
-356 358 361 -367 -380 0
-356 358 -361 368 381 0
-356 358 -361 368 -381 0
-356 358 -361 -368 382 0
-356 358 -361 -368 -382 0
-356 -358 362 369 383 0
-356 -358 362 369 -383 0
-356 -358 362 -369 384 0
-356 -358 362 -369 -384 0
-356 -358 -362 370 385 0
-356 -358 -362 370 -385 0
-356 -358 -362 -370 386 0
-356 -358 -362 -370 -386 0

